nApps = 218
nRes = 9
nActs = 432
nNetworks = 6

assignmentToResources = [2,3,1,1,3,3,1,3,1,1,1,1,1,1,3,3,2,2,1,3,2,2,3,3,3,1,2,3,3,3,3,2,3,3,3,3,1,3,3,3,3,1,3,3,1,3,2,3,3,1,1,3,1,1,2,1,1,3,1,2,2,2,3,3,1,3,1,3,1,2,2,1,2,2,3,3,3,3,2,3,2,1,1,2,1,2,1,2,3,3,1,1,1,1,1,3,1,1,2,3,6,6,6,6,4,4,4,4,6,6,6,6,4,4,6,4,4,4,4,4,4,4,4,4,4,4,4,4,4,6,6,6,5,5,5,5,4,4,4,4,6,6,6,6,5,5,6,6,6,6,6,4,4,5,5,5,6,6,6,6,6,6,6,5,5,5,6,6,6,6,6,6,6,6,6,6,4,6,6,6,6,6,6,6,6,6,6,6,6,6,6,6,4,4,6,6,5,5,6,4,4,6,4,5,5,5,6,4,5,5,5,6,6,4,4,6,4,6,4,5,4,4,4,5,6,6,6,6,6,6,5,4,4,4,5,5,5,4,6,6,4,6,6,6,4,6,5,7,6,8,4,9,5,9,6,7,4,8,5,7,4,8,4,8,4,9,5,9,6,8,6,7,4,8,4,8,6,7,5,7,4,9,6,8,6,8,7,7,7,7,8,9,9,9,7,8,8,8,9,8,7,9,9,8,9,8,9,9,9,8,8,9,9,9,8,8,8,8,7,7,7,9,8,8,9,9,8,7,7,7,7,7,7,8,8,7,7,9,8,9,7,9,8,7,8,8,8,7,8,9,9,7,7,7,8,7,7,7,7,7,7,7,8,7,7,7,8,7,8,7,7,7,8,7,7,7,7,8,8,9,7,8,7,7,7,9,9,8,9,7,7,9,8,9,7,9,9,8,7,8,8,7,9,7,8,7,8,9,9,7,7,7,7,7,7,7,7,8,8,9,7,7,7,8,7,7,9,8,8,7,8,7];

processingTimes = [104,120,112,160,104,136,120,80,160,136,104,104,136,168,72,168,64,104,128,48,136,104,136,120,96,64,72,112,136,160,128,136,160,120,96,112,144,160,168,40,128,72,120,112,120,112,112,144,136,120,104,128,80,136,96,56,104,128,136,136,80,128,128,64,128,160,128,160,120,112,128,56,128,120,128,48,144,56,64,136,104,56,104,80,56,112,56,160,96,112,120,88,128,120,136,128,136,128,136,56,5,3,23,500,500,4,500,13,8,3,3,4,4,4,3,3,500,4,200,3,3,4,4,4,3,23,3,3,3,4,4,500,500,5,5,3,4,4,4,4,3,3,4,4,500,3,3,500,13,500,13,4,4,3,4,4,3,5,3,500,3,3,500,4,200,3,13,13,13,13,13,13,500,8,500,3,500,18,13,3,5,23,13,13,13,13,3,4,4,13,13,4,500,500,5,5,500,500,5,3,4,3,8,5,3,3,500,500,5,4,3,4,4,13,13,4,500,500,3,8,8,4,200,500,5,3,3,4,4,8,8,5,500,4,3,500,13,8,500,4,4,5,3,500,3,4,3,3,4,4,13,13,100,100,100,100,500,500,5,5,4,4,5,5,3,3,8,8,3,3,13,13,5,5,4,4,4,4,5,5,3,3,3,3,16,16,5,3,23,500,500,4,500,13,8,3,3,4,4,4,3,3,500,4,200,3,3,4,4,4,3,23,3,3,3,4,4,500,500,5,5,3,4,4,4,4,3,3,4,4,500,3,3,500,13,500,13,4,4,3,4,4,3,5,3,500,3,3,500,4,200,3,13,13,13,13,13,13,500,8,500,3,500,18,13,3,5,23,13,13,13,13,3,4,4,13,13,4,500,500,5,5,500,500,5,3,4,3,8,5,3,3,500,500,5,4,3,4,4,13,13,4,500,500,3,8,8,4,200,500,5,3,3,4,4,8,8,5,500,4,3,500,13,8,500,4,4,5,3,500,3,4];

periods = [5000,100000,10000,100000,20000,1000,20000,10000,10000,2000,50000,20000,100000,10000,100000,10000,100000,10000,50000,100000,10000,50000,100000,20000,10000,20000,5000,100000,100000,100000,10000,2000,20000,100000,10000,50000,50000,100000,100000,10000,100000,5000,20000,100000,20000,100000,20000,100000,10000,10000,10000,10000,100000,100000,20000,10000,100000,20000,10000,10000,100000,100000,100000,100000,20000,20000,20000,20000,10000,10000,1000,2000,20000,20000,100000,20000,100000,2000,5000,20000,20000,1000,20000,20000,100000,20000,10000,10000,20000,10000,100000,20000,100000,10000,20000,20000,20000,100000,10000,20000,100000,100000,100000,100000,10000,10000,10000,100000,20000,20000,20000,1000,20000,20000,10000,10000,10000,2000,2000,2000,2000,50000,20000,20000,100000,100000,10000,10000,10000,100000,100000,10000,100000,100000,100000,100000,50000,50000,50000,50000,100000,100000,100000,100000,10000,10000,100000,20000,20000,20000,20000,20000,20000,5000,5000,5000,100000,100000,100000,100000,10000,10000,10000,2000,2000,2000,20000,20000,100000,100000,100000,100000,100000,100000,10000,50000,50000,100000,100000,100000,100000,100000,100000,100000,100000,100000,100000,100000,10000,100000,100000,100000,5000,5000,20000,100000,20000,20000,10000,10000,10000,10000,100000,20000,20000,20000,20000,10000,100000,100000,100000,100000,100000,20000,20000,20000,20000,20000,10000,1000,2000,2000,2000,20000,100000,20000,20000,20000,100000,100000,20000,20000,20000,100000,20000,20000,20000,10000,20000,20000,20000,20000,20000,20000,100000,20000,100000,100000,100000,100000,100000,100000,1000,1000,1000,1000,50000,50000,100000,100000,100000,100000,10000,10000,20000,20000,20000,20000,20000,20000,20000,20000,20000,20000,20000,20000,20000,20000,20000,20000,10000,10000,20000,20000,20000,20000,100000,100000,100000,100000,10000,10000,10000,100000,20000,20000,20000,1000,20000,20000,10000,10000,10000,2000,2000,2000,2000,50000,20000,20000,100000,100000,10000,10000,10000,100000,100000,10000,100000,100000,100000,100000,50000,50000,50000,50000,100000,100000,100000,100000,10000,10000,100000,20000,20000,20000,20000,20000,20000,5000,5000,5000,100000,100000,100000,100000,10000,10000,10000,2000,2000,2000,20000,20000,100000,100000,100000,100000,100000,100000,10000,50000,50000,100000,100000,100000,100000,100000,100000,100000,100000,100000,100000,100000,10000,100000,100000,100000,5000,5000,20000,100000,20000,20000,10000,10000,10000,10000,100000,20000,20000,20000,20000,10000,100000,100000,100000,100000,100000,20000,20000,20000,20000,20000,10000,1000,2000,2000,2000,20000,100000,20000,20000,20000,100000,100000,20000,20000,20000,100000,20000,20000,20000,10000,20000,20000,20000,20000,20000,20000,100000,20000];

assignmentToClusters = [1,2,3,4,5,6,7,8,9,10,11,7,12,9,13,14,15,16,11,4,17,11,18,19,20,19,21,22,23,24,25,26,27,28,29,30,31,32,33,34,35,36,37,38,19,39,40,41,42,9,43,44,45,46,19,16,47,48,49,50,12,4,33,4,19,51,52,53,9,54,6,55,19,19,56,40,57,58,59,19,60,6,61,48,12,62,63,64,19,65,66,19,67,34,68,69,70,12,71,72,73,74,75,76,77,78,79,80,81,82,83,84,85,86,87,88,89,90,91,92,93,94,95,96,97,98,99,100,101,102,103,104,105,106,107,108,109,110,111,112,113,114,115,116,117,118,119,120,121,122,123,124,125,126,127,128,129,130,131,132,133,134,135,136,137,138,139,140,141,142,143,144,145,146,147,148,149,150,151,152,153,154,155,156,157,158,159,160,161,162,163,164,165,166,167,168,169,170,171,172,173,174,175,176,177,178,179,180,181,182,183,184,185,186,187,188,189,190,191,192,193,194,195,196,197,198,199,200,201,202,203,204,205,206,207,208,209,210,211,212,213,214,215,216,217,218,4,4,4,4,4,4,6,6,6,6,11,11,12,12,12,12,16,16,19,19,19,19,19,19,19,19,19,19,19,19,19,19,19,19,34,34,40,40,48,48,73,74,75,76,77,78,79,80,81,82,83,84,85,86,87,88,89,90,91,92,93,94,95,96,97,98,99,100,101,102,103,104,105,106,107,108,109,110,111,112,113,114,115,116,117,118,119,120,121,122,123,124,125,126,127,128,129,130,131,132,133,134,135,136,137,138,139,140,141,142,143,144,145,146,147,148,149,150,151,152,153,154,155,156,157,158,159,160,161,162,163,164,165,166,167,168,169,170,171,172,173,174,175,176,177,178,179,180,181,182,183,184,185,186,187,188,189,190,191,192,193,194,195,196,197,198,199,200,201,202,203,204,205,206,207,208,209,210,211,212,213,214,215,216,217,218];

precedenceAdjList = [[],[],[],[247],[],[253],[11],[],[49],[],[18],[],[259],[],[],[],[],[263],[],[251],[],[257],[],[265,267],[],[277],[],[],[],[],[],[],[],[],[],[],[],[],[62],[281],[],[],[],[],[],[],[283],[],[],[68],[],[],[],[],[269],[],[],[],[],[],[261],[249],[],[],[279],[],[],[],[13],[],[],[],[273,275],[72],[],[],[],[],[],[],[],[255],[],[285],[97],[],[],[],[],[],[],[271],[],[],[],[],[],[],[],[],[],[],[],[],[],[],[],[],[],[],[],[],[],[],[],[],[],[],[],[],[],[],[],[],[],[],[],[],[],[],[],[],[],[],[],[],[],[],[],[],[],[],[],[],[],[],[],[],[],[],[],[],[],[],[],[],[],[],[],[],[],[],[],[],[],[],[],[],[],[],[],[],[],[],[],[],[],[],[],[],[],[],[],[],[],[],[],[],[],[],[],[],[],[],[],[],[],[],[],[],[],[],[],[],[],[],[],[],[],[],[],[],[],[],[],[],[],[],[],[],[],[],[],[],[],[],[],[],[],[],[],[],[],[],[],[],[],[],[],[],[],[],[],[],[],[],[61],[246],[63],[248],[3],[250],[70],[252],[5],[254],[10],[256],[60],[258],[84],[260],[55],[262],[44],[264],[54],[266],[79],[268],[23],[270],[25],[272],[91],[274],[88],[276],[72],[278],[93],[280],[75],[282],[57],[284],[100],[101],[102],[103],[104],[105],[106],[107],[108],[109],[110],[111],[112],[113],[114],[115],[116],[117],[118],[119],[120],[121],[122],[123],[124],[125],[126],[127],[128],[129],[130],[131],[132],[133],[134],[135],[136],[137],[138],[139],[140],[141],[142],[143],[144],[145],[146],[147],[148],[149],[150],[151],[152],[153],[154],[155],[156],[157],[158],[159],[160],[161],[162],[163],[164],[165],[166],[167],[168],[169],[170],[171],[172],[173],[174],[175],[176],[177],[178],[179],[180],[181],[182],[183],[184],[185],[186],[187],[188],[189],[190],[191],[192],[193],[194],[195],[196],[197],[198],[199],[200],[201],[202],[203],[204],[205],[206],[207],[208],[209],[210],[211],[212],[213],[214],[215],[216],[217],[218],[219],[220],[221],[222],[223],[224],[225],[226],[227],[228],[229],[230],[231],[232],[233],[234],[235],[236],[237],[238],[239],[240],[241],[242],[243],[244],[245]];